************************************************************************
file with basedata            : md359_.bas
initial value random generator: 417790909
************************************************************************
projects                      :  1
jobs (incl. supersource/sink ):  22
horizon                       :  154
RESOURCES
  - renewable                 :  2   R
  - nonrenewable              :  2   N
  - doubly constrained        :  0   D
************************************************************************
PROJECT INFORMATION:
pronr.  #jobs rel.date duedate tardcost  MPM-Time
    1     20      0       40        8       40
************************************************************************
PRECEDENCE RELATIONS:
jobnr.    #modes  #successors   successors
   1        1          3           2   3   4
   2        3          3           5   8  16
   3        3          3           7   8  16
   4        3          2           5   8
   5        3          2           6   9
   6        3          1           7
   7        3          2          10  17
   8        3          2           9  11
   9        3          3          13  17  20
  10        3          2          11  20
  11        3          1          12
  12        3          1          13
  13        3          2          14  18
  14        3          2          15  19
  15        3          1          21
  16        3          3          17  18  20
  17        3          2          19  21
  18        3          2          19  21
  19        3          1          22
  20        3          1          22
  21        3          1          22
  22        1          0        
************************************************************************
REQUESTS/DURATIONS:
jobnr. mode duration  R 1  R 2  N 1  N 2
------------------------------------------------------------------------
  1      1     0       0    0    0    0
  2      1     2       6    5    6    8
         2     7       6    2    6    7
         3     9       6    2    5    7
  3      1     3       5    6    5    8
         2     3       8    9    4    7
         3     5       4    3    2    6
  4      1     3       9    8    4    9
         2     3      10    6    5    9
         3     3      10    6    8    8
  5      1     2       1    8    5    4
         2     8       1    7    5    2
         3     8       1    6    5    4
  6      1     4      10   10    3    2
         2     9       7    7    3    1
         3    10       5    5    3    1
  7      1     5       6    6    3    5
         2     7       5    5    3    5
         3     9       3    4    2    4
  8      1     4       8    9    9    5
         2     8       7    6    7    2
         3     9       5    6    7    2
  9      1     4       6    5    7    5
         2     6       5    3    4    4
         3     7       4    2    2    1
 10      1     3       2    9    7   10
         2     4       2    9    6    7
         3     6       2    8    3    3
 11      1     1       2    9    5    6
         2     2       2    8    4    5
         3     6       1    6    3    5
 12      1     5       4    7    9    1
         2     9       4    6    6    1
         3    10       2    6    4    1
 13      1     4       6    1    9    7
         2     8       6    1    9    6
         3     8       2    1    9    7
 14      1     7      10    3    3    6
         2     7      10    4    4    4
         3    10      10    2    3    2
 15      1     5       3    9    2    6
         2     8       3    7    1    5
         3     9       2    7    1    5
 16      1     3      10    8    7    7
         2     5       9    7    6    7
         3     9       9    7    5    7
 17      1     2      10    4   10    4
         2     6       9    3   10    3
         3     7       9    3    9    2
 18      1     3       9    2    5    6
         2     3       8    2    5    9
         3     8       6    2    5    6
 19      1     1       7    4    9    7
         2     3       6    2    8    7
         3     4       6    1    8    7
 20      1     3       6    7    9    6
         2     4       5    6    7    5
         3     8       4    4    6    5
 21      1     1       6    9    9    9
         2     5       3    7    7    8
         3     9       1    7    6    7
 22      1     0       0    0    0    0
************************************************************************
RESOURCEAVAILABILITIES:
  R 1  R 2  N 1  N 2
   24   22  102   96
************************************************************************
MAXIMAL LAGS:
from  to  type  delay
    1   22   ES      0
    1    2   ES      0
    2   22   ES      0
    1    3   ES      0
    3   22   ES      0
    1    4   ES      0
    4   22   ES      0
    1    5   ES      0
    5   22   ES      0
    1    6   ES      0
    6   22   ES      0
    1    7   ES      0
    7   22   ES      0
    1    8   ES      0
    8   22   ES      0
    1    9   ES      0
    9   22   ES      0
    1   10   ES      0
   10   22   ES      0
    1   11   ES      0
   11   22   ES      0
    1   12   ES      0
   12   22   ES      0
    1   13   ES      0
   13   22   ES      0
    1   14   ES      0
   14   22   ES      0
    1   15   ES      0
   15   22   ES      0
    1   16   ES      0
   16   22   ES      0
    1   17   ES      0
   17   22   ES      0
    1   18   ES      0
   18   22   ES      0
    1   19   ES      0
   19   22   ES      0
    1   20   ES      0
   20   22   ES      0
    1   21   ES      0
   21   22   ES      0
    1   22   ES      0
    2    5   SS      5
    2    5   SE      7
    2    5   ES      6
    2    5   EE     -4
    2    8   SS      2
    2    8   SE    -12
    2    8   ES      1
    2    8   EE     10
    2   16   SS     -9
    2   16   SE      2
    2   16   ES     10
    2   16   EE      8
    3    7   SS    -12
    3    7   SE      1
    3    7   ES      6
    3    7   EE    -11
    3    8   SS    -10
    3    8   SE     -4
    3    8   ES      7
    3    8   EE      2
    3   16   SS    -10
    3   16   SE    -10
    3   16   ES    -12
    3   16   EE     12
    4    5   SS     -6
    4    5   SE      4
    4    5   ES     -4
    4    5   EE     10
    4    8   SS      2
    4    8   SE     -9
    4    8   ES     -2
    4    8   EE      0
    5    6   SS      3
    5    6   SE     -1
    5    6   ES      1
    5    6   EE      1
    5    9   SS     11
    5    9   SE     -2
    5    9   ES    -12
    5    9   EE      8
    6    7   SS     -2
    6    7   SE    -10
    6    7   ES      5
    6    7   EE     11
    7   10   SS      4
    7   10   SE      1
    7   10   ES    -12
    7   10   EE      9
    7   17   SS     -9
    7   17   SE      0
    7   17   ES      3
    7   17   EE      9
    8    9   SS     -3
    8    9   SE     -4
    8    9   ES      6
    8    9   EE     11
    8   11   SS      9
    8   11   SE     -7
    8   11   ES     -6
    8   11   EE     -3
    9   13   SS     10
    9   13   SE     -6
    9   13   ES     -1
    9   13   EE      7
    9   17   SS      8
    9   17   SE      1
    9   17   ES      6
    9   17   EE      4
    9   20   SS     -2
    9   20   SE    -12
    9   20   ES     -4
    9   20   EE     -2
   10   11   SS     12
   10   11   SE    -12
   10   11   ES      8
   10   11   EE     -2
   10   20   SS      1
   10   20   SE      1
   10   20   ES     10
   10   20   EE      6
   11   12   SS     -5
   11   12   SE      3
   11   12   ES     -2
   11   12   EE     -3
   12   13   SS    -11
   12   13   SE     -8
   12   13   ES     10
   12   13   EE     11
   13   14   SS     -4
   13   14   SE     -7
   13   14   ES      5
   13   14   EE      1
   13   18   SS    -10
   13   18   SE      3
   13   18   ES     10
   13   18   EE      5
   14   15   SS      6
   14   15   SE     -7
   14   15   ES     -2
   14   15   EE      2
   14   19   SS     -9
   14   19   SE     -3
   14   19   ES    -11
   14   19   EE     -8
   15   21   SS     -2
   15   21   SE    -11
   15   21   ES      9
   15   21   EE     -5
   16   17   SS      5
   16   17   SE     -2
   16   17   ES     10
   16   17   EE      3
   16   18   SS      1
   16   18   SE     11
   16   18   ES     -7
   16   18   EE     12
   16   20   SS      0
   16   20   SE     -3
   16   20   ES      4
   16   20   EE    -10
   17   19   SS      8
   17   19   SE      1
   17   19   ES     12
   17   19   EE     12
   17   21   SS     -5
   17   21   SE      4
   17   21   ES      8
   17   21   EE     -3
   18   19   SS      6
   18   19   SE     -5
   18   19   ES     12
   18   19   EE     11
   18   21   SS      1
   18   21   SE      5
   18   21   ES    -11
   18   21   EE      9
************************************************************************
